Problem:    nadadores
Rows:       10
Columns:    24 (24 integer, 24 binary)
Non-zeros:  56
Status:     INTEGER OPTIMAL
Objective:  Z = 173.7 (MINimum)

   No.   Row name        Activity     Lower bound   Upper bound
------ ------------    ------------- ------------- -------------
     1 Z                       173.7                             
     2 cadaNadadorUnaEstilo[1]
                                   1             1             = 
     3 cadaNadadorUnaEstilo[2]
                                   1             1             = 
     4 cadaNadadorUnaEstilo[3]
                                   1             1             = 
     5 cadaNadadorUnaEstilo[4]
                                   1             1             = 
     6 cadaNadadorUnaEstilo[5]
                                   1             1             = 
     7 cadaNadadorUnaEstilo[6]
                                   1             1             = 
     8 siMarioPechoEntPedroLibre
                                   0                          -0 
     9 siJuanMariposaEntAndresNiGonzaloEspalda
                                   0                           2 
    10 siCamiloEspaldayAndresPechoEntMarioLibre
                                   0                           1 

   No. Column name       Activity     Lower bound   Upper bound
------ ------------    ------------- ------------- -------------
     1 X[1,1]       *              1             0             1 
     2 X[2,1]       *              0             0             1 
     3 X[3,1]       *              0             0             1 
     4 X[4,1]       *              0             0             1 
     5 X[1,2]       *              1             0             1 
     6 X[2,2]       *              0             0             1 
     7 X[3,2]       *              0             0             1 
     8 X[4,2]       *              0             0             1 
     9 X[1,3]       *              1             0             1 
    10 X[2,3]       *              0             0             1 
    11 X[3,3]       *              0             0             1 
    12 X[4,3]       *              0             0             1 
    13 X[1,4]       *              1             0             1 
    14 X[2,4]       *              0             0             1 
    15 X[3,4]       *              0             0             1 
    16 X[4,4]       *              0             0             1 
    17 X[1,5]       *              1             0             1 
    18 X[2,5]       *              0             0             1 
    19 X[3,5]       *              0             0             1 
    20 X[4,5]       *              0             0             1 
    21 X[1,6]       *              1             0             1 
    22 X[2,6]       *              0             0             1 
    23 X[3,6]       *              0             0             1 
    24 X[4,6]       *              0             0             1 

Integer feasibility conditions:

KKT.PE: max.abs.err = 0.00e+00 on row 0
        max.rel.err = 0.00e+00 on row 0
        High quality

KKT.PB: max.abs.err = 0.00e+00 on row 0
        max.rel.err = 0.00e+00 on row 0
        High quality

End of output
